objective value:                      1.5085502241576
x(0,2,2)                                            1 	(obj:0)
x(1,8,0)                                            1 	(obj:0)
x(2,4,2)                                            1 	(obj:0)
x(3,1,0)                                            1 	(obj:0)
x(4,7,1)                                            1 	(obj:0)
x(4,17,2)                                           1 	(obj:0)
x(7,0,2)                                            1 	(obj:0)
x(7,14,1)                                           1 	(obj:0)
x(8,13,0)                                           1 	(obj:0)
x(13,3,0)                                           1 	(obj:0)
x(14,4,1)                                           1 	(obj:0)
x(17,7,2)                                           1 	(obj:0)
xc(0,10)                                            1 	(obj:0)
xc(1,9)                                             1 	(obj:0)
xc(2,12)                                            1 	(obj:0)
xc(4,5)                                             1 	(obj:0)
xc(4,14)                                            1 	(obj:0)
xc(7,8)                                             1 	(obj:0)
xc(8,7)                                             1 	(obj:0)
u(0,1)                                1.5085502241576 	(obj:0)
u(0,2)                                0.4442771849492 	(obj:0)
u(1,0)                                0.2310468619497 	(obj:0)
u(1,2)                                1.5085502241576 	(obj:0)
u(2,2)                              0.884486015263302 	(obj:0)
u(4,2)                                1.4485643532189 	(obj:0)
u(5,0)                                1.5085502241576 	(obj:0)
u(5,1)                                1.5085502241576 	(obj:0)
u(6,0)                                1.5085502241576 	(obj:0)
u(7,0)                                1.5085502241576 	(obj:0)
u(7,1)                                1.4485643532189 	(obj:0)
u(8,0)                                1.1012192069595 	(obj:0)
u(8,2)                                1.5085502241576 	(obj:0)
u(9,0)                                1.5085502241576 	(obj:0)
u(9,2)                                1.5085502241576 	(obj:0)
u(10,0)                               1.5085502241576 	(obj:0)
u(10,1)                               1.5085502241576 	(obj:0)
u(10,2)                               1.5085502241576 	(obj:0)
u(11,0)                               1.5085502241576 	(obj:0)
u(11,1)                               1.5085502241576 	(obj:0)
u(11,2)                               1.5085502241576 	(obj:0)
u(12,0)                               1.5085502241576 	(obj:0)
u(12,1)                               1.5085502241576 	(obj:0)
u(12,2)                               1.5085502241576 	(obj:0)
u(13,0)                               1.5085502241576 	(obj:0)
u(13,1)                               1.5085502241576 	(obj:0)
u(13,2)                               1.5085502241576 	(obj:0)
u(14,0)                               1.5085502241576 	(obj:0)
u(14,1)                               1.5085502241576 	(obj:0)
u(14,2)                               1.5085502241576 	(obj:0)
u(15,0)                               1.5085502241576 	(obj:0)
u(15,1)                               1.5085502241576 	(obj:0)
u(15,2)                               1.5085502241576 	(obj:0)
u(16,0)                               1.5085502241576 	(obj:0)
u(16,1)                               1.5085502241576 	(obj:0)
u(16,2)                               1.5085502241576 	(obj:0)
u(17,0)                               1.5085502241576 	(obj:0)
u(17,1)                               1.5085502241576 	(obj:0)
u(17,2)                               1.5085502241576 	(obj:0)
u(18,0)                               1.5085502241576 	(obj:0)
u(18,1)                               1.5085502241576 	(obj:0)
u(18,2)                               1.5085502241576 	(obj:0)
u(19,0)                               1.5085502241576 	(obj:0)
u(19,1)                               1.5085502241576 	(obj:0)
u(19,2)                               1.5085502241576 	(obj:0)
f(0,2,0)                                            1 	(obj:0)
f(0,2,1)                                            1 	(obj:0)
f(1,9,0)                                            1 	(obj:0)
f(1,9,1)                                            1 	(obj:0)
f(1,9,2)                                            1 	(obj:0)
f(1,9,3)                                            1 	(obj:0)
f(1,9,4)                                            1 	(obj:0)
f(2,4,0)                                            1 	(obj:0)
f(2,4,1)                                            1 	(obj:0)
f(2,4,2)                                            1 	(obj:0)
f(3,1,0)                                            1 	(obj:0)
f(3,1,2)                                            1 	(obj:0)
f(3,1,3)                                            1 	(obj:0)
f(3,1,4)                                            1 	(obj:0)
f(4,7,0)                                            1 	(obj:0)
f(4,7,1)                                            1 	(obj:0)
f(4,7,3)                                            1 	(obj:0)
f(4,7,4)                                            1 	(obj:0)
f(4,14,0)                                           1 	(obj:0)
f(4,14,2)                                           1 	(obj:0)
f(4,14,4)                                           1 	(obj:0)
f(4,17,2)                                           1 	(obj:0)
f(7,0,1)                                            1 	(obj:0)
f(7,8,0)                                            1 	(obj:0)
f(7,8,1)                                            1 	(obj:0)
f(7,8,2)                                            1 	(obj:0)
f(7,8,3)                                            1 	(obj:0)
f(7,8,4)                                            1 	(obj:0)
f(7,14,3)                                           1 	(obj:0)
f(8,7,1)                                            1 	(obj:0)
f(8,7,3)                                            1 	(obj:0)
f(8,13,0)                                           1 	(obj:0)
f(8,13,2)                                           1 	(obj:0)
f(8,13,4)                                           1 	(obj:0)
f(13,3,0)                                           1 	(obj:0)
f(13,3,2)                                           1 	(obj:0)
f(13,3,4)                                           1 	(obj:0)
f(14,4,0)                                           1 	(obj:0)
f(14,4,2)                                           1 	(obj:0)
f(14,4,3)                                           1 	(obj:0)
f(14,4,4)                                           1 	(obj:0)
f(17,7,2)                                           1 	(obj:0)
z_r(0,)                               1.5085502241576 	(obj:0)
z_r(1,)                               1.5085502241576 	(obj:0)
z_r(2,)                               1.5085502241576 	(obj:0)
z                                     1.5085502241576 	(obj:1)
